40	100	100	100
81	27	75
89	26	87
70	31	71
88	21	79
85	40	92
93	46	96
70	43	86
69	43	99
67	34	76
99	7	70
76	4	67
83	24	97
75	12	92
75	46	91
90	28	83
94	40	75
85	41	74
74	13	77
79	45	74
88	27	67
76	15	76
98	14	87
97	38	71
68	10	89
99	29	83
97	43	72
74	24	75
91	49	75
79	27	90
82	24	87
68	33	82
98	8	77
71	15	79
68	14	91
80	39	93
66	40	79
69	27	98
94	46	94
91	7	98
85	13	79
